unsat
(:binary-propagations  47
 :conflicts            1
 :final-checks         1
 :max-generation       1
 :max-memory           24.72
 :memory               21.33
 :mk-bool-var          1170
 :mk-clause            327
 :mk-clause-binary     654
 :num-allocs           22141589
 :num-checks           1
 :propagations         47
 :quant-instantiations 262
 :restarts             1
 :rlimit-count         199969
 :time                 0.04)
